p wcnf 3000 300 1
1 1 0
1 2 0
1 3 0
1 4 0
1 5 0
1 6 0
1 7 0
1 8 0
1 9 0
1 10 0
1 11 0
1 12 0
1 13 0
1 14 0
1 15 0
1 1 1 1 1 1 1 1 1 1 1 1 1 2 2 0
1 2 2 2 2 2 2 2 2 2 2 2 2 2 2 0
1 2 2 2 2 2 2 2 2 2 2 2 2 2 2 0
1 3 3 3 3 3 3 3 3 3 3 3 3 3 3 0
1 3 3 3 3 3 3 3 3 3 3 3 4 4 4 0
1 4 4 4 4 4 4 4 4 4 4 4 4 4 4 0
1 4 4 4 4 4 4 4 4 4 4 4 4 4 4 0
1 5 5 5 5 5 5 5 5 5 5 5 5 5 5 0
1 5 5 5 5 5 5 5 5 5 5 5 6 6 6 0
1 6 6 6 6 6 6 6 6 6 6 6 6 6 6 0
1 6 6 6 6 6 6 6 6 6 7 7 7 7 7 0
1 7 7 7 7 7 7 7 7 7 7 7 7 7 7 0
1 7 7 7 7 7 7 7 7 7 7 7 8 8 8 0
1 8 8 8 8 8 8 8 8 8 8 8 8 8 8 0
1 8 8 8 8 8 8 8 8 8 8 8 8 8 8 0
1 9 9 9 9 9 9 9 9 9 9 9 9 9 9 0
1 9 9 9 9 9 9 9 9 9 9 9 9 9 9 0
1 9 10 10 10 10 10 10 10 10 10 10 10 10 10 0
1 10 10 10 10 10 10 10 10 10 10 10 10 10 11 0
1 11 11 11 11 11 11 11 11 11 11 11 11 11 11 0
1 11 11 11 11 11 11 11 11 11 11 11 11 11 11 0
1 12 12 12 12 12 12 12 12 12 12 12 12 12 12 0
1 12 12 12 12 12 12 12 12 12 12 12 12 12 13 0
1 13 13 13 13 13 13 13 13 13 13 13 13 13 13 0
1 13 13 13 13 13 13 13 13 13 13 13 13 13 13 0
1 13 13 13 14 14 14 14 14 14 14 14 14 14 14 0
1 14 14 14 14 14 14 14 14 14 14 14 15 15 15 0
1 15 15 15 15 15 15 15 15 15 15 15 15 15 15 0
1 15 15 15 15 15 15 16 16 16 16 16 16 16 16 0
1 16 16 16 16 16 16 16 16 16 16 16 16 16 16 0
1 17 17 17 17 17 17 17 17 17 17 17 17 17 17 0
1 17 17 17 17 17 17 17 17 17 17 17 17 17 18 0
1 18 18 18 18 18 18 18 18 18 18 18 18 18 18 0
1 18 18 18 18 18 18 18 18 18 18 18 18 18 19 0
1 19 19 19 19 19 19 19 19 19 19 19 19 19 19 0
1 19 19 19 19 19 19 19 19 19 19 19 19 19 19 0
1 19 19 19 20 20 20 20 20 20 20 20 20 20 20 0
1 20 20 20 20 20 20 20 20 20 20 20 20 20 20 0
1 20 20 20 21 21 21 21 21 21 21 21 21 21 21 0
1 21 21 21 21 21 21 21 21 21 21 21 21 21 21 0
1 21 21 21 21 22 22 22 22 22 22 22 22 22 22 0
1 22 22 22 22 22 22 22 22 22 22 22 22 22 22 0
1 22 22 22 22 22 22 22 22 22 22 22 22 22 23 0
1 23 23 23 23 23 23 23 23 23 23 23 23 23 23 0
1 23 23 23 23 23 23 23 23 23 23 23 23 24 24 0
1 24 24 24 24 24 24 24 24 24 24 24 24 24 24 0
1 24 24 24 24 24 24 24 24 24 25 25 25 25 25 0
1 25 25 25 25 25 25 25 25 25 25 25 25 25 25 0
1 25 25 25 25 25 25 25 25 25 26 26 26 26 26 0
1 26 26 26 26 26 26 26 26 26 26 26 26 26 26 0
1 26 26 26 26 26 26 26 26 26 26 27 27 27 27 0
1 27 27 27 27 27 27 27 27 27 27 27 27 27 27 0
1 27 27 27 27 27 27 27 27 27 27 27 28 28 28 0
1 28 28 28 28 28 28 28 28 28 28 28 28 28 28 0
1 28 28 28 28 28 28 28 28 28 28 28 28 28 28 0
1 29 29 29 29 29 29 29 29 29 29 29 29 29 29 0
1 29 29 29 29 29 29 29 29 29 29 29 29 29 30 0
1 30 30 30 30 30 30 30 30 30 30 30 30 30 30 0
1 30 30 30 30 30 30 30 30 30 30 31 31 31 31 0
1 31 31 31 31 31 31 31 31 31 31 31 31 31 31 0
1 31 31 31 31 31 31 31 32 32 32 32 32 32 32 0
1 32 32 32 32 32 32 32 32 32 32 32 32 33 33 0
1 33 33 33 33 33 33 33 33 33 33 33 33 33 33 0
1 33 33 33 33 33 33 33 33 33 34 34 34 34 34 0
1 34 34 34 34 34 34 34 34 34 34 34 34 34 34 0
1 34 34 34 34 34 34 34 34 35 35 35 35 35 35 0
1 35 35 35 35 35 35 35 35 35 35 35 35 35 35 0
1 35 35 35 35 35 35 35 35 35 35 36 36 36 36 0
1 36 36 36 36 36 36 36 36 36 36 36 36 36 36 0
1 36 36 36 36 36 36 36 36 36 36 36 36 36 36 0
1 36 36 36 36 37 37 37 37 37 37 37 37 37 37 0
1 37 37 37 37 37 37 37 37 37 37 37 37 37 37 0
1 38 38 38 38 38 38 38 38 38 38 38 38 38 38 0
1 38 38 38 38 38 38 38 38 38 38 38 38 38 38 0
1 39 39 39 39 39 39 39 39 39 39 39 39 39 39 0
1 39 39 39 39 39 39 39 39 39 39 39 39 39 39 0
1 39 39 40 40 40 40 40 40 40 40 40 40 40 40 0
1 40 40 40 40 40 40 40 40 40 40 40 40 40 40 0
1 40 40 40 40 40 40 41 41 41 41 41 41 41 41 0
1 41 41 41 41 41 41 41 41 41 41 41 41 41 41 0
1 41 41 41 41 41 41 41 41 41 41 41 42 42 42 0
1 42 42 42 42 42 42 42 42 42 42 42 42 42 42 0
1 42 43 43 43 43 43 43 43 43 43 43 43 43 43 0
1 43 43 43 43 43 43 43 43 43 43 43 43 43 43 0
1 43 43 43 43 44 44 44 44 44 44 44 44 44 44 0
1 44 44 44 44 44 44 44 44 44 44 44 44 44 45 0
1 45 45 45 45 45 45 45 45 45 45 45 45 45 45 0
1 45 45 45 45 45 45 45 45 45 45 45 45 45 45 0
1 45 45 45 46 46 46 46 46 46 46 46 46 46 46 0
1 46 46 46 46 46 46 46 46 46 46 46 46 46 46 0
1 47 47 47 47 47 47 47 47 47 47 47 47 47 47 0
1 47 47 47 47 47 47 47 47 47 47 47 47 47 47 0
1 48 48 48 48 48 48 48 48 48 48 48 48 48 48 0
1 48 48 48 48 48 48 48 48 48 49 49 49 49 49 0
1 49 49 49 49 49 49 49 49 49 49 49 49 49 49 0
1 49 49 49 50 50 50 50 50 50 50 50 50 50 50 0
1 50 50 50 50 50 50 50 50 50 50 50 50 50 50 0
1 50 50 50 50 51 51 51 51 51 51 51 51 51 51 0
1 51 51 51 51 51 51 51 51 51 51 51 51 51 51 0
1 51 51 51 51 51 51 51 51 51 51 51 52 52 52 0
1 52 52 52 52 52 52 52 52 52 52 52 52 52 52 0
1 52 52 52 52 52 52 53 53 53 53 53 53 53 53 0
1 53 53 53 53 53 53 53 53 53 53 53 53 53 53 0
1 53 53 53 53 53 53 53 53 53 53 53 53 53 53 0
1 54 54 54 54 54 54 54 54 54 54 54 54 54 54 0
1 54 54 54 54 54 54 54 54 54 54 54 54 54 55 0
1 55 55 55 55 55 55 55 55 55 55 55 55 55 55 0
1 55 55 55 55 55 55 55 55 55 55 55 56 56 56 0
1 56 56 56 56 56 56 56 56 56 56 56 56 56 56 0
1 56 56 56 56 56 56 56 56 56 56 56 56 56 56 0
1 56 56 56 57 57 57 57 57 57 57 57 57 57 57 0
1 57 57 57 57 57 57 57 57 57 57 57 57 57 57 0
1 57 57 57 57 57 57 58 58 58 58 58 58 58 58 0
1 58 58 58 58 58 58 58 58 58 58 58 58 58 58 0
1 58 58 58 58 58 58 58 59 59 59 59 59 59 59 0
1 59 59 59 59 59 59 59 59 59 59 59 59 59 59 0
1 59 59 59 59 59 59 59 59 59 59 59 59 59 59 0
1 60 60 60 60 60 60 60 60 60 60 60 60 60 60 0
1 60 60 60 60 60 60 60 60 60 60 60 60 60 60 0
1 60 60 60 60 60 60 60 60 61 61 61 61 61 61 0
1 61 61 61 61 61 61 61 61 61 61 61 61 61 61 0
1 61 61 61 61 61 61 61 61 61 61 61 62 62 62 0
1 62 62 62 62 62 62 62 62 62 62 62 62 62 63 0
1 63 63 63 63 63 63 63 63 63 63 63 63 63 63 0
1 63 63 63 63 63 63 63 63 63 63 63 63 63 63 0
1 63 63 63 63 63 64 64 64 64 64 64 64 64 64 0
1 64 64 64 64 64 64 64 64 64 64 64 64 64 64 0
1 64 64 64 64 64 64 64 64 64 64 65 65 65 65 0
1 65 65 65 65 65 65 65 65 65 65 65 65 65 65 0
1 66 66 66 66 66 66 66 66 66 66 66 66 66 66 0
1 66 66 66 66 66 66 66 66 66 66 66 66 66 66 0
1 66 67 67 67 67 67 67 67 67 67 67 67 67 67 0
1 67 67 67 67 67 67 67 67 67 68 68 68 68 68 0
1 68 68 68 68 68 68 68 68 68 68 68 68 68 68 0
1 68 68 68 68 68 68 68 68 68 68 68 68 69 69 0
1 69 69 69 69 69 69 69 69 69 69 69 69 69 69 0
1 69 69 69 69 69 69 70 70 70 70 70 70 70 70 0
1 70 70 70 70 70 70 70 70 70 70 70 70 70 70 0
1 70 70 70 70 70 70 70 70 71 71 71 71 71 71 0
1 71 71 71 71 71 71 71 71 71 71 71 71 71 71 0
1 71 71 71 71 71 71 71 71 71 71 71 71 71 71 0
1 71 71 72 72 72 72 72 72 72 72 72 72 72 72 0
1 72 72 72 72 72 72 72 72 72 72 72 72 72 72 0
1 72 72 72 72 72 72 72 72 72 72 72 72 72 72 0
1 73 73 73 73 73 73 73 73 73 73 73 73 73 73 0
1 73 73 73 73 73 73 73 73 73 73 73 73 73 74 0
1 74 74 74 74 74 74 74 74 74 74 74 74 74 74 0
1 74 74 74 74 74 74 74 74 74 74 74 74 75 75 0
1 75 75 75 75 75 75 75 75 75 75 75 75 75 75 0
1 75 75 75 75 75 75 75 75 75 75 75 75 75 76 0
1 76 76 76 76 76 76 76 76 76 76 76 76 76 76 0
1 76 76 76 76 76 76 76 76 76 76 76 77 77 77 0
1 77 77 77 77 77 77 77 77 77 77 77 77 77 77 0
1 77 77 77 78 78 78 78 78 78 78 78 78 78 78 0
1 78 78 78 78 78 78 78 78 78 78 78 78 78 78 0
1 78 78 78 78 78 78 78 78 79 79 79 79 79 79 0
1 79 79 79 79 79 79 79 79 79 79 79 79 79 79 0
1 79 79 79 79 79 79 79 79 79 79 79 79 79 79 0
1 79 79 79 79 79 80 80 80 80 80 80 80 80 80 0
1 80 80 80 80 80 80 80 80 80 80 80 80 80 80 0
1 80 80 80 81 81 81 81 81 81 81 81 81 81 81 0
1 81 81 81 81 81 81 81 81 81 81 81 82 82 82 0
1 82 82 82 82 82 82 82 82 82 82 82 82 82 82 0
1 82 82 83 83 83 83 83 83 83 83 83 83 83 83 0
1 83 83 83 83 83 83 83 83 83 83 83 84 84 84 0
1 84 84 84 84 84 84 84 84 84 84 84 84 84 84 0
1 84 84 84 84 84 84 84 84 84 84 84 84 84 84 0
1 85 85 85 85 85 85 85 85 85 85 85 85 85 85 0
1 85 85 85 85 85 85 85 85 85 85 85 86 86 86 0
1 86 86 86 86 86 86 86 86 86 86 86 86 86 86 0
1 86 86 86 86 86 86 86 86 86 86 86 86 86 86 0
1 87 87 87 87 87 87 87 87 87 87 87 87 87 87 0
1 87 87 87 87 87 87 87 87 87 87 87 87 87 87 0
1 87 87 87 87 87 88 88 88 88 88 88 88 88 88 0
1 88 88 88 88 88 88 88 88 88 88 88 88 88 88 0
1 89 89 89 89 89 89 89 89 89 89 89 89 89 89 0
1 89 89 89 89 89 89 89 89 89 89 90 90 90 90 0
1 90 90 90 90 90 90 90 90 90 90 90 90 90 90 0
1 90 90 90 90 90 90 90 90 91 91 91 91 91 91 0
1 91 91 91 91 91 91 91 91 91 91 91 91 91 91 0
1 91 91 91 91 91 91 91 92 92 92 92 92 92 92 0
1 92 92 92 92 92 92 92 92 92 92 92 92 92 92 0
1 92 92 92 92 92 92 93 93 93 93 93 93 93 93 0
1 93 93 93 93 93 93 93 93 93 93 93 93 93 93 0
1 93 93 93 93 93 93 93 93 93 94 94 94 94 94 0
1 94 94 94 94 94 94 94 94 94 94 94 94 94 94 0
1 94 94 94 94 94 94 94 94 94 94 94 94 95 95 0
1 95 95 95 95 95 95 95 95 95 95 95 95 95 95 0
1 95 95 95 95 95 95 95 95 95 95 95 95 95 95 0
1 95 96 96 96 96 96 96 96 96 96 96 96 96 96 0
1 96 96 96 96 96 96 96 96 96 96 96 96 96 96 0
1 97 97 97 97 97 97 97 97 97 97 97 97 97 97 0
1 97 97 97 97 97 97 97 97 97 97 97 97 97 97 0
1 97 97 98 98 98 98 98 98 98 98 98 98 98 98 0
1 98 98 98 98 98 98 98 98 98 98 98 98 98 98 0
1 98 98 98 98 98 98 99 99 99 99 99 99 99 99 0
1 99 99 99 99 99 99 99 99 99 99 99 99 99 99 0
1 99 99 99 99 99 99 100 100 100 100 100 100 100 100 0
1 100 100 100 100 100 100 100 100 100 100 100 100 100 100 0
1  0
1 27 29 35 38 59 92 144 177 187 248 255 305 306 310 0
1 340 341 342 369 374 378 450 471 481 492 495 521 523 533 0
1 554 606 609 645 668 712 724 729 748 752 771 821 909 912 0
1 963 983 994 1000 1001 1100 1101 1107 1151 1228 1243 1280 1339 1349 0
1 1400 1401 1412 1425 1427 1445 1448 1465 1469 1472 1478 1497 1516 1542 0
1 1610 1625 1626 1772 1780 1847 1860 1871 1872 1879 1881 1916 1959 1988 0
1 2010 2058 2086 2092 2097 2128 2141 2157 2182 2186 2188 2247 2265 2285 0
1 2301 2381 2383 2393 2397 2401 2431 2446 2451 2459 2466 2470 2485 2506 0
1 2585 2592 2597 2602 2623 2657 2681 2697 2743 2753 2755 2756 2760 2823 0
1 2859 2872 2969 0
1  0
1 46 49 59 108 122 135 149 153 201 204 218 235 281 299 0
1 316 317 347 379 380 463 470 513 529 550 567 568 586 602 0
1 690 691 692 739 760 772 792 809 842 853 901 905 909 945 0
1 959 980 983 998 1011 1076 1098 1114 1116 1118 1132 1144 1148 1155 0
1 1196 1239 1283 1289 1296 1305 1309 1321 1344 1367 1371 1378 1388 1411 0
1 1435 1438 1464 1480 1496 1523 1524 1539 1550 1560 1579 1581 1599 1601 0
1 1639 1640 1649 1670 1671 1675 1686 1692 1705 1715 1732 1736 1746 1748 0
1 1795 1826 1841 1849 1866 1905 1934 1959 1963 1982 1991 2005 2015 2020 0
1 2107 2122 2124 2135 2136 2186 2198 2207 2212 2233 2255 2277 2293 2298 0
1 2309 2316 2318 2323 2338 2362 2374 2420 2521 2548 2554 2609 2626 2643 0
1 2661 2686 2706 2735 2783 2788 2791 2820 2827 2835 2855 2857 2882 2887 0
1  0
1  0
1 45 49 50 60 90 94 98 105 114 116 120 122 129 132 0
1 151 161 186 222 264 268 291 311 333 341 364 384 395 398 0
1 425 432 451 489 495 504 507 511 527 537 546 554 561 573 0
1 596 634 671 677 689 692 693 698 746 748 778 815 831 843 0
1 871 890 902 910 924 933 944 955 963 972 975 1010 1020 1039 0
1 1061 1130 1156 1169 1175 1191 1199 1236 1249 1262 1283 1291 1298 1302 0
1 1330 1350 1364 1374 1375 1381 1404 1411 1438 1452 1458 1462 1465 1508 0
1 1520 1541 1558 1569 1579 1582 1586 1596 1606 1612 1639 1657 1671 1689 0
1 1694 1713 1716 1717 1722 1725 1736 1774 1780 1786 1822 1846 1871 1892 0
1 1901 1936 1953 1955 1963 1970 1975 2014 2015 2042 2053 2068 2070 2088 0
1 2117 2148 2175 2184 2209 2211 2254 2281 2296 2320 2329 2330 2333 2372 0
1 2491 2504 2520 2527 2528 2549 2551 2565 2617 2624 2689 2703 2708 2738 0
1 2779 2794 2798 2799 2810 2827 2844 2846 2927 2968 2992 0
1  0
1 42 44 65 123 130 133 149 153 157 186 198 213 235 263 0
1 304 310 349 354 373 401 445 454 456 478 503 510 514 515 0
1 533 559 607 632 649 668 669 690 693 725 748 750 820 836 0
1 872 876 880 884 886 890 894 933 934 939 947 948 1007 1014 0
1 1036 1044 1050 1076 1107 1134 1197 1206 1243 1247 1265 1274 1300 1321 0
1 1412 1448 1460 1461 1469 1476 1493 1516 1535 1576 1582 1600 1611 1646 0
1 1712 1724 1735 1753 1785 1799 1814 1835 1864 1870 1872 1924 1927 1934 0
1 1966 1978 2022 2025 2031 2049 2053 2056 2069 2090 2096 2122 2134 2151 0
1 2185 2190 2211 2215 2236 2242 2272 2301 2334 2354 2356 2362 2386 2394 0
1 2444 2466 2468 2491 2554 2572 2587 2607 2634 2645 2667 2680 2692 2698 0
1 2710 2713 2726 2840 2857 2930 2975 2991 0
1  0
1 24 29 39 49 58 90 128 135 137 147 159 161 169 192 0
1 209 210 219 224 248 279 300 301 303 320 360 422 432 446 0
1 533 550 593 599 611 663 682 685 695 701 704 722 726 751 0
1 808 815 886 939 960 997 1004 1010 1011 1027 1036 1083 1086 1103 0
1 1135 1160 1181 1208 1238 1239 1263 1268 1301 1339 1342 1345 1353 1356 0
1 1383 1431 1440 1442 1446 1451 1470 1514 1539 1562 1605 1609 1616 1623 0
1 1685 1698 1743 1746 1752 1778 1779 1791 1819 1824 1840 1850 1865 1866 0
1 1908 1910 1919 1946 1962 1966 1986 2029 2065 2067 2072 2170 2180 2181 0
1 2201 2206 2238 2321 2341 2370 2383 2387 2422 2480 2491 2505 2524 2528 0
1 2559 2587 2596 2606 2607 2608 2619 2624 2627 2641 2657 2680 2682 2695 0
1 2703 2713 2721 2754 2755 2841 2857 2882 2883 2890 2908 2922 2980 2982 0
1 2986 2989 0
1  0
1 26 35 103 122 138 173 211 216 223 226 258 263 276 297 0
1 384 393 413 420 427 448 449 495 498 513 522 527 541 545 0
1 565 576 594 599 632 638 639 671 681 717 719 750 775 810 0
1 827 850 884 897 906 913 924 966 995 1029 1058 1064 1130 1140 0
1 1168 1198 1238 1262 1282 1286 1289 1294 1301 1307 1312 1332 1340 1348 0
1 1392 1396 1409 1415 1422 1427 1449 1541 1542 1547 1567 1581 1608 1609 0
1 1686 1726 1733 1816 1822 1830 1833 1873 1909 1916 1950 1995 2013 2036 0
1 2117 2126 2179 2183 2187 2280 2317 2320 2326 2417 2427 2454 2469 2523 0
1 2543 2546 2549 2552 2569 2595 2630 2702 2737 2741 2789 2816 2818 2821 0
1 2844 2893 2906 2924 2966 2980 0
1  0
1 50 116 129 131 155 156 195 229 247 269 307 346 347 360 0
1 374 417 437 454 455 473 480 540 545 560 589 593 644 669 0
1 681 682 691 719 731 735 760 785 788 793 798 834 837 848 0
1 898 900 904 915 918 932 974 1117 1169 1181 1194 1199 1216 1246 0
1 1254 1286 1293 1320 1327 1330 1347 1359 1374 1397 1403 1409 1431 1453 0
1 1519 1552 1555 1617 1629 1644 1686 1740 1750 1784 1788 1815 1820 1864 0
1 1868 1885 1939 1949 1951 1958 1992 1999 2009 2109 2110 2115 2173 2178 0
1 2185 2255 2263 2266 2267 2270 2272 2274 2281 2304 2335 2340 2357 2362 0
1 2390 2397 2404 2447 2452 2453 2458 2474 2488 2522 2543 2556 2586 2615 0
1 2628 2638 2677 2679 2680 2693 2694 2697 2741 2750 2791 2797 2802 2827 0
1 2853 2856 2897 2925 2929 2931 2965 2981 0
1  0
1 13 28 30 32 39 45 56 57 75 77 94 99 102 105 0
1 141 181 235 242 245 247 254 274 277 293 301 335 352 354 0
1 434 500 527 528 531 553 562 578 579 588 595 623 630 673 0
1 691 713 716 721 775 777 797 815 836 837 840 870 898 902 0
1 960 968 980 981 982 983 998 1026 1034 1052 1076 1086 1091 1098 0
1 1111 1112 1117 1138 1203 1219 1249 1252 1264 1278 1282 1293 1308 1311 0
1 1372 1387 1388 1404 1412 1415 1448 1451 1465 1495 1509 1543 1594 1609 0
1 1643 1665 1674 1705 1712 1714 1716 1741 1767 1779 1794 1828 1832 1852 0
1 1915 1953 1979 1994 2007 2011 2014 2047 2065 2074 2078 2097 2101 2111 0
1 2132 2135 2137 2140 2146 2200 2223 2227 2230 2252 2344 2368 2402 2431 0
1 2451 2533 2542 2560 2603 2620 2706 2715 2729 2730 2776 2808 2811 2832 0
1 2898 2956 2984 0
1  0
1 38 58 127 154 157 173 190 193 205 231 252 283 306 334 0
